5909 2641  0
5993 2725  1
6076 2796  1
5889 2621  3
5892 2615  3
6006 2738  4
5836 2561  4
5867 2593  5
6005 2697  6
6009 2691  6
5994 2699  6
5945 2668  7
5961 2687  8
5977 2704  10
5946 2663  11
5937 2666  12
6035 2752  13
6064 2791  14
5986 2718  15
6015 2725  16
5993 2723  17
5941 2659  18
5987 2719  19
6014 2746  19
6111 2806  20
6085 2813  20
6077 2808  21
5907 2639  22
6095 2822  23
5837 2569  24
5958 2689  25
5983 2713  26
5934 2656  27
5901 2619  28
5955 2687  29
5955 2684  30
5964 2679  30
5976 2703  31
5858 2590  32
6164 2896  33
6010 2735  34
5863 2587  35
6025 2703  36
5979 2709  36
5905 2636  37
5874 2606  39
5978 2697  40
5976 2704  40
6085 2817  41
6034 2765  42
5948 2666  43
5944 2676  43
6027 2742  44
6019 2751  44
6004 2725  45
5988 2720  46
6098 2830  47
5898 2625  48
5922 2623  48
5932 2655  49
